\ENCODING=ISO-8859-1
\Problem name: 

Maximize
 obj: x1 + x2 + x3 + x4 + x5 + x6 + x7 + x8 + x9 + x10 + x11 + x12 + x13 + x14
      + x15 + x16 + x17 + x18 + x19 + x20 + x21 + x22 + x23 + x24 + x25 + x26
      + x27 + x28 + x29 + x30 + x31 + x32 + x33 + x34 + x35 + x36 + x37 + x38
      + x39 + x40 + x41 + x42 + x43 + x44 + x45 + x46 + x47 + x48 + x49 + x50
      + x51 + x52 + x53 + x54 + x55 + x56 + x57 + x58 + x59 + x60 + x61 + x62
      + x63 + x64 + x65 + x66 + x67 + x68 + x69 + x70 + x71 + x72 + x73 + x74
      + x75 + x76 + x77 + x78 + x79 + x80 + x81 + x82 + x83 + x84 + x85 + x86
      + x87 + x88 + x89 + x90 + x91 + x92 + x93 + x94 + x95 + x96 + x97 + x98
      + x99 + x100 + x101 + x102 + x103 + x104 + x105 + x106 + x107 + x108
      + x109 + x110 + x111 + x112 + x113 + x114 + x115 + x116 + x117 + x118
      + x119 + x120 + x121 + x122 + x123 + x124 + x125 + x126 + x127 + x128
      + x129 + x130 + x131 + x132 + x133 + x134 + x135 + x136 + x137 + x138
      + x139 + x140 + x141 + x142 + x143 + x144 + x145 + x146 + x147 + x148
      + x149 + x150
Subject To
 clq1:   x131 + x143 <= 1
 clq2:   x22 + x39 + x123 <= 1
 clq3:   x20 + x25 <= 1
 clq4:   x13 + x80 + x98 <= 1
 clq5:   x72 + x134 + x137 <= 1
 clq6:   x132 + x136 <= 1
 clq7:   x30 + x41 <= 1
 clq8:   x34 + x52 <= 1
 clq9:   x26 + x94 <= 1
 clq10:  x41 + x98 + x110 <= 1
 clq11:  x4 + x38 + x57 <= 1
 clq12:  x21 + x64 + x79 <= 1
 clq13:  x24 + x104 <= 1
 clq14:  x39 + x83 <= 1
 clq15:  x12 + x59 <= 1
 clq16:  x4 + x65 + x66 <= 1
 clq17:  x4 + x118 + x124 <= 1
 clq18:  x44 + x56 <= 1
 clq19:  x42 + x88 <= 1
 clq20:  x15 + x96 + x116 <= 1
 clq21:  x82 + x101 <= 1
 clq22:  x121 + x138 <= 1
 clq23:  x46 + x57 + x137 <= 1
 clq24:  x27 + x86 + x113 <= 1
 clq25:  x81 + x89 + x124 <= 1
 clq26:  x105 + x106 <= 1
 clq27:  x10 + x113 + x118 <= 1
 clq28:  x92 + x111 + x119 <= 1
 clq29:  x60 + x94 + x96 <= 1
 clq30:  x4 + x148 <= 1
 clq31:  x25 + x95 + x127 <= 1
 clq32:  x64 + x104 <= 1
 clq33:  x40 + x87 <= 1
 clq34:  x52 + x67 <= 1
 clq35:  x8 + x12 <= 1
 clq36:  x39 + x44 + x96 <= 1
 clq37:  x30 + x82 + x125 <= 1
 clq38:  x2 + x99 <= 1
 clq39:  x14 + x131 <= 1
 clq40:  x27 + x30 + x94 <= 1
 clq41:  x80 + x146 <= 1
 clq42:  x42 + x58 + x94 <= 1
 clq43:  x13 + x150 <= 1
 clq44:  x19 + x56 + x81 <= 1
 clq45:  x77 + x103 + x128 <= 1
 clq46:  x113 + x135 + x145 <= 1
 clq47:  x16 + x91 + x109 <= 1
 clq48:  x13 + x60 + x100 <= 1
 clq49:  x10 + x19 + x84 <= 1
 clq50:  x15 + x22 + x27 <= 1
 clq51:  x91 + x106 + x119 <= 1
 clq52:  x53 + x68 + x74 + x119 <= 1
 clq53:  x1 + x64 <= 1
 clq54:  x45 + x55 + x131 <= 1
 clq55:  x36 + x74 <= 1
 clq56:  x51 + x121 + x140 <= 1
 clq57:  x9 + x25 + x117 <= 1
 clq58:  x51 + x70 + x117 <= 1
 clq59:  x6 + x32 <= 1
 clq60:  x4 + x23 + x118 <= 1
 clq61:  x55 + x72 + x137 <= 1
 clq62:  x16 + x150 <= 1
 clq63:  x29 + x88 <= 1
 clq64:  x76 + x112 <= 1
 clq65:  x22 + x90 + x149 <= 1
 clq66:  x54 + x106 + x119 <= 1
 clq67:  x58 + x72 + x114 <= 1
 clq68:  x3 + x68 <= 1
 clq69:  x30 + x76 <= 1
 clq70:  x95 + x134 <= 1
 clq71:  x37 + x63 <= 1
 clq72:  x29 + x114 <= 1
 clq73:  x19 + x149 <= 1
 clq74:  x1 + x110 <= 1
 clq75:  x38 + x82 + x133 <= 1
 clq76:  x8 + x24 <= 1
 clq77:  x33 + x105 <= 1
 clq78:  x53 + x102 <= 1
 clq79:  x59 + x127 <= 1
 clq80:  x69 + x92 <= 1
 clq81:  x41 + x96 <= 1
 clq82:  x20 + x54 <= 1
 clq83:  x21 + x55 <= 1
 clq84:  x6 + x116 + x139 <= 1
 clq85:  x65 + x88 + x102 <= 1
 clq86:  x2 + x50 + x130 <= 1
 clq87:  x48 + x123 <= 1
 clq88:  x61 + x87 <= 1
 clq89:  x22 + x58 + x131 <= 1
 clq90:  x23 + x33 <= 1
 clq91:  x48 + x71 + x83 <= 1
 clq92:  x48 + x104 + x116 <= 1
 clq93:  x6 + x104 + x116 <= 1
 clq94:  x55 + x86 + x137 <= 1
 clq95:  x26 + x41 + x150 <= 1
 clq96:  x36 + x107 + x113 <= 1
 clq97:  x32 + x70 + x80 <= 1
 clq98:  x12 + x89 + x148 <= 1
 clq99:  x48 + x83 + x116 <= 1
 clq100: x122 + x140 <= 1
 clq101: x59 + x116 <= 1
 clq102: x81 + x135 + x145 <= 1
 clq103: x96 + x102 <= 1
 clq104: x29 + x32 + x80 <= 1
 clq105: x39 + x96 + x127 <= 1
 clq106: x41 + x53 + x77 <= 1
 clq107: x133 + x145 + x147 <= 1
 clq108: x57 + x68 + x125 <= 1
 clq109: x80 + x127 <= 1
 clq110: x75 + x122 + x131 <= 1
 clq111: x11 + x92 <= 1
 clq112: x68 + x81 + x89 <= 1
 clq113: x52 + x58 + x73 <= 1
 clq114: x37 + x55 + x84 <= 1
 clq115: x89 + x101 + x124 <= 1
 clq116: x26 + x115 + x132 <= 1
 clq117: x51 + x76 <= 1
 clq118: x23 + x53 + x77 <= 1
 clq119: x6 + x22 + x131 <= 1
 clq120: x73 + x119 <= 1
 clq121: x48 + x71 + x104 <= 1
 clq122: x23 + x53 + x63 <= 1
 clq123: x7 + x102 + x147 <= 1
 clq124: x11 + x72 + x117 <= 1
 clq125: x56 + x116 + x146 <= 1
 clq126: x19 + x82 + x125 <= 1
 clq127: x61 + x149 <= 1
 clq128: x17 + x88 <= 1
 clq129: x22 + x58 + x72 <= 1
 clq130: x83 + x99 <= 1
 clq131: x60 + x73 <= 1
 clq132: x52 + x95 + x135 <= 1
 clq133: x61 + x71 + x83 <= 1
 clq134: x29 + x97 + x134 <= 1
 clq135: x32 + x52 + x56 <= 1
 clq136: x12 + x93 <= 1
 clq137: x8 + x96 + x135 <= 1
 clq138: x10 + x62 + x78 <= 1
 clq139: x26 + x89 + x137 <= 1
 clq140: x27 + x65 + x105 <= 1
 clq141: x12 + x89 + x133 <= 1
 clq142: x12 + x44 <= 1
 clq143: x36 + x49 <= 1
 clq144: x23 + x130 <= 1
 clq145: x9 + x102 + x147 <= 1
 clq146: x3 + x103 <= 1
 clq147: x9 + x25 + x45 <= 1
 clq148: x32 + x52 + x135 + x147 <= 1
 clq149: x7 + x86 + x125 <= 1
 clq150: x35 + x139 <= 1
 clq151: x18 + x79 <= 1
 clq152: x42 + x51 + x74 + x100 <= 1
 clq153: x73 + x105 + x128 <= 1
 clq154: x36 + x113 + x145 <= 1
 clq155: x28 + x57 <= 1
 clq156: x32 + x57 + x107 <= 1
 clq157: x88 + x137 <= 1
 clq158: x70 + x84 + x122 <= 1
 clq159: x10 + x20 + x55 <= 1
 clq160: x18 + x43 + x137 <= 1
 clq161: x14 + x102 <= 1
 clq162: x10 + x70 + x113 <= 1
 clq163: x72 + x82 <= 1
 clq164: x32 + x52 + x58 + x147 <= 1
 clq165: x49 + x67 + x116 <= 1
 clq166: x55 + x56 + x144 + x145 <= 1
 clq167: x111 + x119 + x135 <= 1
 clq168: x31 + x78 <= 1
 clq169: x41 + x46 + x110 <= 1
 clq170: x41 + x85 + x106 <= 1
 clq171: x46 + x56 + x110 + x127 <= 1
 clq172: x6 + x113 + x140 <= 1
 clq173: x4 + x70 + x72 <= 1
 clq174: x5 + x129 <= 1
 clq175: x15 + x27 + x121 <= 1
 clq176: x64 + x129 <= 1
 clq177: x59 + x87 <= 1
 clq178: x74 + x133 <= 1
 clq179: x6 + x47 + x104 <= 1
 clq180: x97 + x123 <= 1
 clq181: x18 + x59 + x98 <= 1
 clq182: x58 + x115 + x142 <= 1
 clq183: x31 + x86 + x125 <= 1
 clq184: x27 + x40 + x86 <= 1
 clq185: x60 + x87 <= 1
 clq186: x121 + x124 + x140 <= 1
 clq187: x26 + x77 + x89 <= 1
 clq188: x48 + x50 + x104 <= 1
 clq189: x4 + x10 + x66 + x114 <= 1
 clq190: x5 + x6 + x68 <= 1
 clq191: x1 + x101 <= 1
 clq192: x21 + x106 <= 1
 clq193: x5 + x42 + x85 + x113 <= 1
 clq194: x71 + x129 + x146 <= 1
 clq195: x62 + x129 <= 1
 clq196: x129 + x140 <= 1
 clq197: x40 + x139 <= 1
 clq198: x21 + x26 + x79 <= 1
 clq199: x127 + x150 <= 1
 clq200: x88 + x91 + x110 <= 1
 clq201: x59 + x81 + x117 <= 1
 clq202: x75 + x129 <= 1
 clq203: x32 + x52 + x57 + x58 <= 1
 clq204: x87 + x143 <= 1
 clq205: x40 + x62 + x74 + x94 <= 1
 clq206: x47 + x134 + x140 <= 1
 clq207: x1 + x68 <= 1
 clq208: x6 + x8 + x22 <= 1
 clq209: x73 + x124 + x128 <= 1
 clq210: x6 + x102 <= 1
 clq211: x18 + x55 + x137 <= 1
 clq212: x10 + x109 <= 1
 clq213: x7 + x21 + x69 <= 1
 clq214: x12 + x107 <= 1
 clq215: x30 + x114 <= 1
 clq216: x10 + x11 + x17 <= 1
 clq217: x43 + x102 <= 1
 clq218: x77 + x89 + x133 <= 1
 clq219: x3 + x44 <= 1
 clq220: x44 + x134 <= 1
 clq221: x32 + x39 <= 1
 clq222: x48 + x65 <= 1
 clq223: x11 + x35 + x72 <= 1
 clq224: x54 + x74 + x119 <= 1
 clq225: x10 + x20 + x51 <= 1
 clq226: x32 + x38 + x77 <= 1
 clq227: x10 + x41 + x73 <= 1
 clq228: x37 + x120 + x139 <= 1
 clq229: x64 + x83 <= 1
 clq230: x31 + x69 <= 1
 clq231: x113 + x118 + x125 + x135 <= 1
 clq232: x31 + x46 + x74 <= 1
 clq233: x26 + x105 <= 1
 clq234: x18 + x58 <= 1
 clq235: x3 + x105 <= 1
 clq236: x48 + x94 <= 1
 clq237: x4 + x40 + x74 <= 1
 clq238: x20 + x68 <= 1
 clq239: x29 + x53 + x80 <= 1
 clq240: x50 + x92 + x118 <= 1
 clq241: x57 + x58 + x68 <= 1
 clq242: x49 + x128 <= 1
 clq243: x28 + x150 <= 1
 clq244: x21 + x57 + x64 <= 1
 clq245: x38 + x98 <= 1
 clq246: x37 + x64 <= 1
 clq247: x7 + x130 <= 1
 clq248: x36 + x92 <= 1
 clq249: x51 + x92 <= 1
 clq250: x7 + x26 + x122 <= 1
 clq251: x27 + x113 + x118 <= 1
 clq252: x38 + x94 <= 1
 clq253: x22 + x125 <= 1
 clq254: x11 + x47 + x150 <= 1
 clq255: x5 + x66 <= 1
 clq256: x58 + x73 + x131 <= 1
 clq257: x63 + x110 + x129 <= 1
 clq258: x18 + x20 + x59 <= 1
 clq259: x87 + x89 + x124 <= 1
 clq260: x50 + x54 + x75 <= 1
 clq261: x57 + x68 + x123 <= 1
 clq262: x42 + x85 + x149 <= 1
 clq263: x91 + x126 <= 1
 clq264: x37 + x150 <= 1
 clq265: x22 + x56 <= 1
 clq266: x16 + x36 + x113 <= 1
 clq267: x21 + x114 <= 1
 clq268: x13 + x54 + x80 <= 1
 clq269: x3 + x71 + x115 <= 1
 clq270: x49 + x117 <= 1
 clq271: x4 + x66 + x112 + x143 <= 1
 clq272: x52 + x57 + x123 <= 1
 clq273: x81 + x89 + x148 <= 1
 clq274: x45 + x121 <= 1
 clq275: x38 + x77 + x103 <= 1
 clq276: x3 + x9 + x72 <= 1
 clq277: x53 + x115 + x119 <= 1
 clq278: x34 + x42 + x113 <= 1
 clq279: x62 + x78 + x136 <= 1
 clq280: x8 + x114 <= 1
 clq281: x102 + x120 + x142 <= 1
 clq282: x30 + x93 <= 1
 clq283: x70 + x84 + x93 <= 1
 clq284: x27 + x112 + x143 <= 1
 clq285: x30 + x103 <= 1
 clq286: x10 + x11 + x113 <= 1
 clq287: x38 + x82 + x109 <= 1
 clq288: x69 + x75 <= 1
 clq289: x39 + x47 + x140 <= 1
 clq290: x9 + x117 + x142 <= 1
 clq291: x71 + x101 <= 1
 clq292: x9 + x94 <= 1
 clq293: x3 + x144 <= 1
 clq294: x37 + x92 <= 1
 clq295: x5 + x6 + x104 <= 1
 clq296: x36 + x87 + x137 + x148 <= 1
 clq297: x22 + x27 + x112 <= 1
 clq298: x27 + x43 + x118 <= 1
 clq299: x2 + x72 <= 1
 clq300: x7 + x45 <= 1
 clq301: x26 + x66 <= 1
 clq302: x39 + x43 <= 1
 clq303: x36 + x57 + x137 <= 1
 clq304: x27 + x94 + x118 <= 1
 clq305: x56 + x78 + x136 <= 1
 clq306: x69 + x71 + x83 <= 1
 clq307: x14 + x44 <= 1
 clq308: x98 + x136 <= 1
 clq309: x88 + x90 + x118 <= 1
 clq310: x7 + x122 + x141 <= 1
 clq311: x1 + x59 + x86 <= 1
 clq312: x54 + x56 + x128 <= 1
 clq313: x41 + x120 <= 1
 clq314: x71 + x98 <= 1
 clq315: x18 + x106 <= 1
 clq316: x95 + x104 <= 1
 clq317: x77 + x136 <= 1
 clq318: x10 + x51 + x66 + x70 <= 1
 clq319: x38 + x65 + x105 <= 1
 clq320: x4 + x74 + x124 <= 1
 clq321: x39 + x136 + x140 <= 1
 clq322: x6 + x62 + x126 <= 1
 clq323: x11 + x41 + x150 <= 1
 clq324: x4 + x66 + x70 + x112 <= 1
 clq325: x116 + x137 <= 1
 clq326: x28 + x88 + x102 <= 1
 clq327: x50 + x73 <= 1
 clq328: x6 + x104 + x121 <= 1
 clq329: x112 + x132 <= 1
 clq330: x58 + x72 + x73 <= 1
 clq331: x57 + x109 + x123 <= 1
 clq332: x30 + x79 <= 1
 clq333: x62 + x117 + x122 <= 1
 clq334: x33 + x82 + x97 <= 1
 clq335: x41 + x53 + x111 <= 1
 clq336: x56 + x92 + x111 <= 1
 clq337: x11 + x146 <= 1
 clq338: x3 + x113 <= 1
 clq339: x9 + x41 + x77 + x85 <= 1
 clq340: x126 + x134 <= 1
 clq341: x6 + x22 + x98 <= 1
 clq342: x84 + x108 <= 1
 clq343: x42 + x74 + x94 <= 1
 clq344: x20 + x65 <= 1
 clq345: x3 + x71 + x83 <= 1
 clq346: x90 + x118 + x149 <= 1
 clq347: x53 + x111 + x119 <= 1
 clq348: x88 + x141 <= 1
 clq349: x1 + x47 + x86 <= 1
 clq350: x87 + x110 + x129 <= 1
 clq351: x4 + x66 + x124 <= 1
 clq352: x1 + x8 + x61 + x96 <= 1
 clq353: x85 + x90 + x149 <= 1
 clq354: x115 + x119 + x141 <= 1
 clq355: x21 + x32 + x57 <= 1
 clq356: x88 + x110 + x123 <= 1
 clq357: x74 + x91 + x119 <= 1
 clq358: x20 + x77 <= 1
 clq359: x89 + x126 <= 1
 clq360: x47 + x87 <= 1
 clq361: x71 + x131 <= 1
 clq362: x39 + x47 + x123 <= 1
 clq363: x11 + x61 + x76 <= 1
 clq364: x19 + x25 + x45 <= 1
 clq365: x34 + x42 + x138 <= 1
 clq366: x69 + x71 + x97 <= 1
 clq367: x4 + x56 + x78 <= 1
 clq368: x80 + x126 <= 1
 clq369: x129 + x144 <= 1
 clq370: x4 + x93 + x124 <= 1
 clq371: x69 + x71 + x90 <= 1
 clq372: x54 + x93 <= 1
 clq373: x2 + x79 <= 1
 clq374: x9 + x41 + x98 <= 1
 clq375: x24 + x105 <= 1
 clq376: x65 + x88 + x91 <= 1
 clq377: x35 + x69 + x83 <= 1
 clq378: x86 + x114 + x128 <= 1
 clq379: x31 + x125 + x139 <= 1
 clq380: x11 + x31 + x150 <= 1
 clq381: x39 + x62 + x136 <= 1
 clq382: x31 + x34 + x142 <= 1
 clq383: x46 + x60 + x82 <= 1
 clq384: x29 + x55 + x74 <= 1
 clq385: x25 + x30 + x136 <= 1
 clq386: x90 + x127 <= 1
 clq387: x53 + x105 <= 1
 clq388: x32 + x70 + x147 <= 1
 clq389: x37 + x139 + x143 <= 1
 clq390: x12 + x139 <= 1
 clq391: x84 + x146 <= 1
 clq392: x15 + x142 <= 1
 clq393: x25 + x120 + x136 <= 1
 clq394: x66 + x125 <= 1
 clq395: x36 + x57 + x115 <= 1
 clq396: x56 + x71 + x146 <= 1
 clq397: x36 + x76 <= 1
 clq398: x7 + x61 + x147 <= 1
 clq399: x79 + x128 + x140 <= 1
 clq400: x3 + x49 <= 1
 clq401: x11 + x138 + x150 <= 1
 clq402: x87 + x89 + x137 + x148 <= 1
 clq403: x13 + x111 <= 1
 clq404: x23 + x116 + x146 <= 1
 clq405: x31 + x121 <= 1
 clq406: x51 + x100 + x121 <= 1
 clq407: x31 + x115 + x142 <= 1
 clq408: x12 + x28 + x133 <= 1
 clq409: x42 + x64 <= 1
 clq410: x48 + x51 <= 1
 clq411: x13 + x98 + x145 <= 1
 clq412: x40 + x76 + x128 <= 1
 clq413: x12 + x130 <= 1
 clq414: x82 + x97 + x112 <= 1
 clq415: x133 + x137 + x142 <= 1
 clq416: x64 + x147 <= 1
 clq417: x41 + x110 + x129 <= 1
 clq418: x34 + x109 <= 1
 clq419: x101 + x149 <= 1
 clq420: x48 + x111 <= 1
 clq421: x18 + x104 <= 1
 clq422: x43 + x74 + x100 <= 1
 clq423: x7 + x122 + x125 <= 1
 clq424: x70 + x104 <= 1
 clq425: x3 + x54 <= 1
 clq426: x1 + x18 + x96 <= 1
 clq427: x27 + x73 + x121 <= 1
 clq428: x25 + x48 <= 1
 clq429: x2 + x65 <= 1
 clq430: x46 + x60 + x132 <= 1
 clq431: x19 + x130 <= 1
 clq432: x28 + x111 + x133 <= 1
 clq433: x120 + x136 + x139 <= 1
 clq434: x16 + x52 <= 1
 clq435: x10 + x55 + x113 <= 1
 clq436: x108 + x118 <= 1
 clq437: x75 + x77 + x122 <= 1
 clq438: x13 + x32 + x80 <= 1
 clq439: x62 + x65 + x78 <= 1
 clq440: x27 + x67 <= 1
 clq441: x33 + x104 <= 1
 clq442: x29 + x32 + x77 <= 1
 clq443: x46 + x137 + x142 <= 1
 clq444: x115 + x132 + x141 <= 1
 clq445: x73 + x99 <= 1
 clq446: x19 + x54 + x56 <= 1
 clq447: x119 + x127 <= 1
 clq448: x75 + x77 + x89 <= 1
 clq449: x48 + x124 <= 1
 clq450: x38 + x44 + x82 <= 1
 clq451: x92 + x119 + x142 <= 1
 clq452: x80 + x121 <= 1
 clq453: x27 + x43 + x112 <= 1
 clq454: x5 + x6 + x79 <= 1
 clq455: x31 + x32 <= 1
 clq456: x49 + x55 + x102 <= 1
 clq457: x3 + x15 + x143 <= 1
 clq458: x23 + x30 <= 1
 clq459: x87 + x89 + x110 <= 1
 clq460: x106 + x132 <= 1
 clq461: x10 + x20 + x114 <= 1
 clq462: x109 + x121 <= 1
 clq463: x95 + x142 <= 1
 clq464: x25 + x46 + x127 <= 1
 clq465: x13 + x50 + x149 <= 1
 clq466: x4 + x57 + x107 <= 1
 clq467: x24 + x46 + x140 <= 1
 clq468: x22 + x107 <= 1
 clq469: x7 + x72 <= 1
 clq470: x51 + x139 <= 1
 clq471: x11 + x141 <= 1
 clq472: x23 + x101 <= 1
 clq473: x34 + x127 <= 1
 clq474: x85 + x97 <= 1
 clq475: x55 + x84 + x89 + x137 <= 1
 clq476: x40 + x138 <= 1
 clq477: x18 + x90 <= 1
 clq478: x1 + x50 <= 1
 clq479: x15 + x38 <= 1
 clq480: x2 + x57 <= 1
 clq481: x19 + x25 + x84 <= 1
 clq482: x29 + x53 + x93 <= 1
 clq483: x54 + x57 <= 1
 clq484: x51 + x63 + x110 <= 1
 clq485: x14 + x115 <= 1
 clq486: x61 + x73 <= 1
 clq487: x26 + x93 <= 1
 clq488: x7 + x125 + x139 <= 1
 clq489: x39 + x46 + x127 <= 1
 clq490: x31 + x48 + x134 <= 1
 clq491: x60 + x93 + x96 <= 1
 clq492: x59 + x132 <= 1
 clq493: x1 + x18 + x59 <= 1
 clq494: x13 + x44 + x45 <= 1
 clq495: x104 + x133 <= 1
 clq496: x116 + x120 + x146 <= 1
 clq497: x23 + x49 + x116 <= 1
 clq498: x122 + x148 <= 1
 clq499: x76 + x91 <= 1
 clq500: x37 + x68 + x120 <= 1
 clq501: x89 + x114 + x137 <= 1
 clq502: x46 + x56 + x94 <= 1
 clq503: x77 + x87 + x89 <= 1
 clq504: x91 + x109 + x143 <= 1
 clq505: x111 + x132 <= 1
 clq506: x72 + x114 + x137 <= 1
 clq507: x27 + x118 + x149 <= 1
 clq508: x83 + x106 <= 1
 clq509: x14 + x80 <= 1
 clq510: x40 + x62 + x126 <= 1
 clq511: x13 + x54 + x145 <= 1
 clq512: x88 + x131 <= 1
 clq513: x25 + x66 <= 1
 clq514: x50 + x147 <= 1
 clq515: x36 + x57 + x123 <= 1
 clq516: x1 + x112 <= 1
 clq517: x7 + x34 + x142 <= 1
 clq518: x8 + x135 + x145 <= 1
 clq519: x133 + x149 <= 1
 clq520: x6 + x62 + x79 <= 1
 clq521: x4 + x120 <= 1
 clq522: x13 + x35 + x54 <= 1
 clq523: x70 + x84 + x105 <= 1
 clq524: x92 + x114 <= 1
 clq525: x43 + x134 + x137 <= 1
 clq526: x60 + x82 + x100 <= 1
 clq527: x17 + x106 <= 1
 clq528: x45 + x68 <= 1
 clq529: x16 + x122 <= 1
 clq530: x57 + x84 + x137 <= 1
 clq531: x111 + x126 <= 1
 clq532: x4 + x72 + x85 <= 1
 clq533: x77 + x85 + x90 <= 1
 clq534: x46 + x132 + x142 <= 1
 clq535: x42 + x47 <= 1
 clq536: x108 + x112 <= 1
 clq537: x8 + x70 + x96 <= 1
 clq538: x11 + x57 <= 1
 clq539: x102 + x120 + x147 <= 1
 clq540: x33 + x110 + x129 <= 1
 clq541: x1 + x142 <= 1
 clq542: x22 + x75 + x131 <= 1
 clq543: x82 + x97 + x133 <= 1
 clq544: x2 + x60 <= 1
 clq545: x13 + x85 + x149 <= 1
 clq546: x30 + x78 + x82 <= 1
 clq547: x115 + x134 + x141 <= 1
 clq548: x103 + x132 <= 1
 clq549: x6 + x98 + x110 <= 1
 clq550: x5 + x44 <= 1
 clq551: x7 + x122 + x142 <= 1
 clq552: x132 + x148 <= 1
 clq553: x24 + x134 + x140 <= 1
 clq554: x61 + x66 + x83 <= 1
 clq555: x20 + x99 <= 1
 clq556: x15 + x42 + x143 <= 1
 clq557: x74 + x98 + x124 <= 1
 clq558: x103 + x120 <= 1
 clq559: x69 + x90 + x113 <= 1
 clq560: x83 + x142 <= 1
 clq561: x1 + x28 + x61 <= 1
 clq562: x82 + x86 + x125 <= 1
 clq563: x123 + x130 <= 1
 clq564: x59 + x81 + x97 <= 1
 clq565: x96 + x115 <= 1
 clq566: x69 + x108 <= 1
 clq567: x3 + x143 + x146 <= 1
 clq568: x7 + x126 <= 1
 clq569: x62 + x69 <= 1
 clq570: x50 + x146 <= 1
 clq571: x5 + x7 + x21 <= 1
 clq572: x53 + x74 + x100 <= 1
 clq573: x1 + x8 + x84 <= 1
 clq574: x2 + x81 <= 1
 clq575: x31 + x87 + x129 <= 1
 clq576: x28 + x78 + x111 <= 1
 clq577: x68 + x78 <= 1
 clq578: x4 + x79 <= 1
 clq579: x101 + x103 <= 1
 clq580: x116 + x120 + x139 <= 1
 clq581: x23 + x134 <= 1
 clq582: x134 + x143 <= 1
 clq583: x48 + x90 + x103 <= 1
 clq584: x7 + x67 <= 1
 clq585: x10 + x36 + x113 <= 1
 clq586: x75 + x120 <= 1
 clq587: x20 + x36 + x39 <= 1
 clq588: x67 + x114 <= 1
 clq589: x89 + x109 <= 1
 clq590: x46 + x113 + x140 <= 1
 clq591: x25 + x44 + x45 <= 1
 clq592: x87 + x102 <= 1
 clq593: x2 + x14 <= 1
 clq594: x23 + x77 + x122 <= 1
 clq595: x41 + x42 + x77 + x85 <= 1
 clq596: x3 + x150 <= 1
 clq597: x11 + x17 + x95 <= 1
 clq598: x13 + x122 <= 1
 clq599: x9 + x59 + x76 <= 1
 clq600: x88 + x90 + x91 <= 1
 clq601: x4 + x60 + x114 <= 1
 clq602: x67 + x90 + x91 <= 1
 clq603: x63 + x94 <= 1
 clq604: x12 + x72 <= 1
 clq605: x115 + x119 + x142 <= 1
 clq606: x108 + x140 <= 1
 clq607: x33 + x150 <= 1
 clq608: x89 + x137 + x144 + x148 <= 1
 clq609: x60 + x78 + x82 <= 1
 clq610: x13 + x32 + x149 <= 1
 clq611: x5 + x17 + x103 <= 1
 clq612: x64 + x81 + x97 <= 1
 clq613: x42 + x100 + x143 <= 1
 clq614: x60 + x96 + x116 <= 1
 clq615: x30 + x141 <= 1
 clq616: x22 + x41 + x98 <= 1
 clq617: x135 + x144 + x145 + x147 <= 1
 clq618: x15 + x23 + x116 <= 1
 clq619: x65 + x91 + x147 <= 1
 clq620: x21 + x98 + x110 <= 1
 clq621: x1 + x8 + x69 <= 1
 clq622: x31 + x53 + x74 <= 1
 clq623: x36 + x113 + x123 <= 1
 clq624: x74 + x99 <= 1
 clq625: x48 + x71 + x90 <= 1
 clq626: x40 + x74 + x98 <= 1
 clq627: x19 + x134 <= 1
 clq628: x62 + x85 + x117 <= 1
 clq629: x21 + x63 + x79 <= 1
 clq630: x57 + x84 + x107 <= 1
 clq631: x53 + x68 + x123 <= 1
 clq632: x33 + x44 + x82 <= 1
 clq633: x38 + x49 <= 1
 clq634: x71 + x148 <= 1
 clq635: x99 + x145 <= 1
 clq636: x41 + x65 <= 1
 clq637: x119 + x143 + x146 <= 1
 clq638: x9 + x104 <= 1
 clq639: x66 + x75 <= 1
 clq640: x8 + x74 <= 1
 clq641: x21 + x63 + x110 <= 1
 clq642: x7 + x101 <= 1
 clq643: x62 + x85 + x130 <= 1
 clq644: x3 + x29 <= 1
 clq645: x42 + x84 <= 1
 clq646: x28 + x51 <= 1
Bounds
 0 <= x1 <= 1
 0 <= x2 <= 1
 0 <= x3 <= 1
 0 <= x4 <= 1
 0 <= x5 <= 1
 0 <= x6 <= 1
 0 <= x7 <= 1
 0 <= x8 <= 1
 0 <= x9 <= 1
 0 <= x10 <= 1
 0 <= x11 <= 1
 0 <= x12 <= 1
 0 <= x13 <= 1
 0 <= x14 <= 1
 0 <= x15 <= 1
 0 <= x16 <= 1
 0 <= x17 <= 1
 0 <= x18 <= 1
 0 <= x19 <= 1
 0 <= x20 <= 1
 0 <= x21 <= 1
 0 <= x22 <= 1
 0 <= x23 <= 1
 0 <= x24 <= 1
 0 <= x25 <= 1
 0 <= x26 <= 1
 0 <= x27 <= 1
 0 <= x28 <= 1
 0 <= x29 <= 1
 0 <= x30 <= 1
 0 <= x31 <= 1
 0 <= x32 <= 1
 0 <= x33 <= 1
 0 <= x34 <= 1
 0 <= x35 <= 1
 0 <= x36 <= 1
 0 <= x37 <= 1
 0 <= x38 <= 1
 0 <= x39 <= 1
 0 <= x40 <= 1
 0 <= x41 <= 1
 0 <= x42 <= 1
 0 <= x43 <= 1
 0 <= x44 <= 1
 0 <= x45 <= 1
 0 <= x46 <= 1
 0 <= x47 <= 1
 0 <= x48 <= 1
 0 <= x49 <= 1
 0 <= x50 <= 1
 0 <= x51 <= 1
 0 <= x52 <= 1
 0 <= x53 <= 1
 0 <= x54 <= 1
 0 <= x55 <= 1
 0 <= x56 <= 1
 0 <= x57 <= 1
 0 <= x58 <= 1
 0 <= x59 <= 1
 0 <= x60 <= 1
 0 <= x61 <= 1
 0 <= x62 <= 1
 0 <= x63 <= 1
 0 <= x64 <= 1
 0 <= x65 <= 1
 0 <= x66 <= 1
 0 <= x67 <= 1
 0 <= x68 <= 1
 0 <= x69 <= 1
 0 <= x70 <= 1
 0 <= x71 <= 1
 0 <= x72 <= 1
 0 <= x73 <= 1
 0 <= x74 <= 1
 0 <= x75 <= 1
 0 <= x76 <= 1
 0 <= x77 <= 1
 0 <= x78 <= 1
 0 <= x79 <= 1
 0 <= x80 <= 1
 0 <= x81 <= 1
 0 <= x82 <= 1
 0 <= x83 <= 1
 0 <= x84 <= 1
 0 <= x85 <= 1
 0 <= x86 <= 1
 0 <= x87 <= 1
 0 <= x88 <= 1
 0 <= x89 <= 1
 0 <= x90 <= 1
 0 <= x91 <= 1
 0 <= x92 <= 1
 0 <= x93 <= 1
 0 <= x94 <= 1
 0 <= x95 <= 1
 0 <= x96 <= 1
 0 <= x97 <= 1
 0 <= x98 <= 1
 0 <= x99 <= 1
 0 <= x100 <= 1
 0 <= x101 <= 1
 0 <= x102 <= 1
 0 <= x103 <= 1
 0 <= x104 <= 1
 0 <= x105 <= 1
 0 <= x106 <= 1
 0 <= x107 <= 1
 0 <= x108 <= 1
 0 <= x109 <= 1
 0 <= x110 <= 1
 0 <= x111 <= 1
 0 <= x112 <= 1
 0 <= x113 <= 1
 0 <= x114 <= 1
 0 <= x115 <= 1
 0 <= x116 <= 1
 0 <= x117 <= 1
 0 <= x118 <= 1
 0 <= x119 <= 1
 0 <= x120 <= 1
 0 <= x121 <= 1
 0 <= x122 <= 1
 0 <= x123 <= 1
 0 <= x124 <= 1
 0 <= x125 <= 1
 0 <= x126 <= 1
 0 <= x127 <= 1
 0 <= x128 <= 1
 0 <= x129 <= 1
 0 <= x130 <= 1
 0 <= x131 <= 1
 0 <= x132 <= 1
 0 <= x133 <= 1
 0 <= x134 <= 1
 0 <= x135 <= 1
 0 <= x136 <= 1
 0 <= x137 <= 1
 0 <= x138 <= 1
 0 <= x139 <= 1
 0 <= x140 <= 1
 0 <= x141 <= 1
 0 <= x142 <= 1
 0 <= x143 <= 1
 0 <= x144 <= 1
 0 <= x145 <= 1
 0 <= x146 <= 1
 0 <= x147 <= 1
 0 <= x148 <= 1
 0 <= x149 <= 1
 0 <= x150 <= 1
Binaries
 x1  x2  x3  x4  x5  x6  x7  x8  x9  x10  x11  x12  x13  x14  x15  x16  x17 
 x18  x19  x20  x21  x22  x23  x24  x25  x26  x27  x28  x29  x30  x31  x32 
 x33  x34  x35  x36  x37  x38  x39  x40  x41  x42  x43  x44  x45  x46  x47 
 x48  x49  x50  x51  x52  x53  x54  x55  x56  x57  x58  x59  x60  x61  x62 
 x63  x64  x65  x66  x67  x68  x69  x70  x71  x72  x73  x74  x75  x76  x77 
 x78  x79  x80  x81  x82  x83  x84  x85  x86  x87  x88  x89  x90  x91  x92 
 x93  x94  x95  x96  x97  x98  x99  x100  x101  x102  x103  x104  x105  x106 
 x107  x108  x109  x110  x111  x112  x113  x114  x115  x116  x117  x118  x119 
 x120  x121  x122  x123  x124  x125  x126  x127  x128  x129  x130  x131  x132 
 x133  x134  x135  x136  x137  x138  x139  x140  x141  x142  x143  x144  x145 
 x146  x147  x148  x149  x150 
End
